GLPSOL--GLPK LP/MIP Solver 5.0
Parameter(s) specified in the command line:
 --lp ../modeles/10_219.lp --log 10_219.log
Reading problem data from '../modeles/10_219.lp'...
2231 rows, 4400 columns, 15380 non-zeros
2190 integer variables, all of which are binary
6647 lines were read
GLPK Integer Optimizer 5.0
2231 rows, 4400 columns, 15380 non-zeros
2190 integer variables, all of which are binary
Preprocessing...
2180 constraint coefficient(s) were reduced
2231 rows, 4390 columns, 15370 non-zeros
2190 integer variables, all of which are binary
Scaling...
 A: min|aij| =  8.340e-05  max|aij| =  4.000e+00  ratio =  4.796e+04
GM: min|aij| =  6.757e-02  max|aij| =  1.480e+01  ratio =  2.190e+02
EQ: min|aij| =  4.566e-03  max|aij| =  1.000e+00  ratio =  2.190e+02
2N: min|aij| =  3.906e-03  max|aij| =  1.762e+00  ratio =  4.510e+02
Constructing initial basis...
Size of triangular part is 2231
Solving LP relaxation...
GLPK Simplex Optimizer 5.0
2231 rows, 4390 columns, 15370 non-zeros
      0: obj =   2.000000000e+01 inf =   4.950e+01 (21)
    149: obj =   4.995934112e-01 inf =   0.000e+00 (0)
*   467: obj =  -3.161462530e+00 inf =   3.303e-15 (0)
OPTIMAL LP SOLUTION FOUND
Integer optimization begins...
Long-step dual simplex will be used
+   467: mip =     not found yet >=              -inf        (1; 0)
+   570: >>>>>  -3.161462530e+00 >=  -3.161462530e+00 < 0.1% (102; 0)
+   570: mip =  -3.161462530e+00 >=     tree is empty   0.0% (0; 203)
INTEGER OPTIMAL SOLUTION FOUND
Time used:   0.4 secs
Memory used: 6.4 Mb (6721992 bytes)
